num_workers = 5;
num_tasks = 8;
num_levels = 5;
P = 300;
N = 3;
worker_level = [2, 3, 3, 4, 1];
task_level = [4, 3, 2, 2, 3, 2, 3, 2];
fixed_cost = array2d(1..num_workers, 1..num_tasks, [16, 18, 20, 5, 5, 7, 20, 17, 18, 11, 16, 6, 10, 16, 9, 4, 20, 1, 9, 9, 15, 18, 7, 18, 14, 11, 13, 19, 1, 18, 7, 13, 5, 17, 10, 6, 6, 18, 12, 5]);
time_cost = array2d(1..num_workers, 1..num_tasks, [9, 2, 3, 8, 2, 4, 2, 10, 3, 7, 5, 4, 8, 10, 10, 4, 9, 7, 4, 2, 6, 4, 1, 6, 10, 1, 5, 10, 7, 2, 6, 4, 6, 1, 10, 7, 4, 3, 8, 2]);
task_time = [19, 48, 19, 12, 29, 40, 40, 39];
max_worker_time = [44, 78, 80, 99, 48];
